28587.1,45.69,50.32
29541.8,44.22,48.69
30854.57,42.33,46.62
28966.79,45.09,49.66
30027.94,43.5,47.9
28575.21,45.71,50.34
31161.73,41.92,46.16
35084.23,37.23,41.0
30768.85,42.45,46.75
31050.31,42.07,46.33
28938.15,45.14,49.71
27817.73,46.96,51.71
30021.44,43.51,47.91
31061.41,42.05,46.31
29607.0,44.12,48.58
29472.78,44.32,48.81
32094.01,40.7,44.82
28175.19,46.36,51.05
31504.37,41.46,45.66
30174.35,43.29,47.67
